c Result of efficient AIG-to-CNF conversion using package CNF
p cnf 576 2140
-2 3 221 365 461 0
-2 -3 -221 365 461 0
2 -461 0
2 -3 221 0
2 -365 0
2 3 -221 0
3 4 -30 0
-3 -4 0
-3 30 0
-4 5 11 15 19 0
4 -19 0
4 -5 0
4 -15 0
4 -11 0
-5 533 565 6 10 0
5 -533 0
5 -10 0
5 -6 0
5 -565 0
-6 555 7 8 9 0
6 -555 0
6 -9 0
6 -8 0
6 -7 0
-7 552 553 554 0
7 -552 0
7 -554 0
7 -553 0
-8 520 521 522 0
8 -520 0
8 -522 0
8 -521 0
-9 550 551 0
9 -550 0
9 -551 0
-10 536 537 538 0
10 -536 0
10 -538 0
10 -537 0
-11 564 12 13 14 0
11 -564 0
11 -14 0
11 -13 0
11 -12 0
-12 534 535 0
12 -534 0
12 -535 0
-13 558 559 0
13 -558 0
13 -559 0
-14 530 531 0
14 -530 0
14 -531 0
-15 556 557 16 18 0
15 -556 0
15 -18 0
15 -16 0
15 -557 0
-16 566 567 569 17 0
16 -17 0
16 -569 0
16 -566 0
16 -567 0
-17 568 570 0
17 -568 0
17 -570 0
-18 523 524 0
18 -523 0
18 -524 0
-19 517 20 25 26 0
19 -517 0
19 -26 0
19 -25 0
19 -20 0
-20 518 519 525 21 0
20 -21 0
20 -525 0
20 -518 0
20 -519 0
-21 532 22 23 24 0
21 -532 0
21 -24 0
21 -23 0
21 -22 0
-22 528 529 0
22 -528 0
22 -529 0
-23 562 563 0
23 -562 0
23 -563 0
-24 526 527 0
24 -526 0
24 -527 0
-25 547 548 560 561 0
25 -561 0
25 -560 0
25 -547 0
25 -548 0
-26 549 27 28 29 0
26 -549 0
26 -29 0
26 -28 0
26 -27 0
-27 512 513 514 0
27 -512 0
27 -514 0
27 -513 0
-28 544 545 546 0
28 -544 0
28 -546 0
28 -545 0
-29 515 516 0
29 -515 0
29 -516 0
-30 -31 150 0
-30 31 32 99 0
30 31 -32 0
30 -31 -150 0
30 31 -99 0
-31 539 571 0
31 -539 0
31 -571 0
32 33 34 -84 0
32 33 -34 -35 0
-32 -33 0
-32 34 84 0
-32 -34 35 0
-33 540 572 0
33 -540 0
33 -572 0
-34 541 573 0
34 -541 0
34 -573 0
35 36 -37 0
35 -36 -66 0
-35 -36 66 0
-35 36 37 0
-36 542 574 0
36 -542 0
36 -574 0
37 -543 -55 0
37 -575 -55 0
37 543 575 -38 0
-37 -543 55 0
-37 -575 55 0
-37 543 575 38 0
38 -39 48 0
-38 39 0
-38 -48 0
39 572 -40 0
39 -572 -47 0
-39 -572 47 0
-39 572 40 0
40 573 -41 0
40 -573 -44 0
-40 -573 44 0
-40 573 41 0
41 574 -42 0
41 -574 -43 0
-41 -574 43 0
-41 574 42 0
42 -536 -575 0
42 -535 575 0
-42 535 575 0
-42 536 -575 0
43 -538 -575 0
43 -537 575 0
-43 537 575 0
-43 538 -575 0
44 574 -45 0
44 -574 -46 0
-44 -574 46 0
-44 574 45 0
45 -540 -575 0
45 -539 575 0
-45 539 575 0
-45 540 -575 0
46 -542 -575 0
46 -541 575 0
-46 541 575 0
-46 542 -575 0
47 -543 573 574 575 0
-47 -575 0
-47 -574 0
-47 543 0
-47 -573 0
-48 571 49 0
48 -571 0
48 -49 0
-49 565 50 51 52 0
49 -565 0
49 -52 0
49 -51 0
49 -50 0
-50 549 555 564 0
50 -549 0
50 -564 0
50 -555 0
-51 550 551 558 559 0
51 -559 0
51 -558 0
51 -550 0
51 -551 0
-52 7 25 28 53 0
52 -53 0
52 -7 0
52 -28 0
52 -25 0
-53 562 563 16 54 0
53 -562 0
53 -54 0
53 -16 0
53 -563 0
-54 556 557 0
54 -556 0
54 -557 0
55 48 -56 0
-55 -48 0
-55 56 0
56 572 -57 0
56 -572 -64 0
-56 -572 64 0
-56 572 57 0
57 573 -58 0
57 -573 -61 0
-57 -573 61 0
-57 573 58 0
58 574 -59 0
58 -574 -60 0
-58 -574 60 0
-58 574 59 0
59 -535 -575 0
59 -534 575 0
-59 534 575 0
-59 535 -575 0
60 -537 -575 0
60 -536 575 0
-60 536 575 0
-60 537 -575 0
61 574 -62 0
61 -574 -63 0
-61 -574 63 0
-61 574 62 0
62 -539 -575 0
62 -538 575 0
-62 538 575 0
-62 539 -575 0
63 -541 -575 0
63 -540 575 0
-63 540 575 0
-63 541 -575 0
64 573 -65 0
-64 -573 0
-64 65 0
65 -542 574 575 0
65 -543 574 -575 0
-65 -574 0
-65 543 -575 0
-65 542 575 0
66 -543 -75 0
66 -575 -75 0
66 543 575 -67 0
-66 -543 75 0
-66 -575 75 0
-66 543 575 67 0
67 48 -68 0
-67 -48 0
-67 68 0
68 572 -69 0
68 -572 -73 0
-68 -572 73 0
-68 572 69 0
69 573 -70 0
69 -573 -72 0
-69 -573 72 0
-69 573 70 0
70 -574 -42 0
70 574 -71 0
-70 574 71 0
-70 -574 42 0
71 -534 -575 0
71 -533 575 0
-71 533 575 0
-71 534 -575 0
72 574 -43 0
72 -574 -45 0
-72 -574 45 0
-72 574 43 0
73 573 -74 0
-73 -573 0
-73 74 0
74 574 -46 0
74 -543 -574 575 0
-74 574 46 0
-74 -574 -575 0
-74 543 -574 0
75 48 -76 0
-75 -48 0
-75 76 0
76 572 -77 0
76 -572 -81 0
-76 -572 81 0
-76 572 77 0
77 573 -78 0
77 -573 -80 0
-77 -573 80 0
-77 573 78 0
78 -574 -59 0
78 574 -79 0
-78 574 79 0
-78 -574 59 0
79 -533 -575 0
79 -532 575 0
-79 532 575 0
-79 533 -575 0
80 574 -60 0
80 -574 -62 0
-80 -574 62 0
-80 574 60 0
81 573 -82 0
-81 -573 0
-81 82 0
82 574 -63 0
82 -574 -83 0
-82 -574 83 0
-82 574 63 0
83 -543 -575 0
83 -542 575 0
-83 542 575 0
-83 543 -575 0
84 36 -85 0
84 -36 -93 0
-84 -36 93 0
-84 36 85 0
85 86 -87 0
85 -86 48 -91 0
-85 86 87 0
-85 -86 -48 0
-85 -86 91 0
-86 543 575 0
86 -543 0
86 -575 0
87 48 -88 0
-87 -48 0
-87 88 0
88 572 -89 0
-88 -572 0
-88 89 0
89 573 -44 0
89 -573 -90 0
-89 -573 90 0
-89 573 44 0
90 -543 574 575 0
-90 543 0
-90 -575 0
-90 -574 0
91 572 -92 0
-91 -572 0
-91 92 0
92 573 -61 0
92 -573 -65 0
-92 -573 65 0
-92 573 61 0
93 -86 -96 0
93 86 48 -94 0
-93 86 -48 0
-93 -86 96 0
-93 86 94 0
94 572 -95 0
-94 -572 0
-94 95 0
95 573 -72 0
95 -573 -74 0
-95 -573 74 0
-95 573 72 0
96 48 -97 0
-96 -48 0
-96 97 0
97 572 -98 0
-97 -572 0
-97 98 0
98 573 -80 0
98 -573 -82 0
-98 -573 82 0
-98 573 80 0
99 -33 -34 -123 0
99 -33 34 -100 0
-99 33 0
-99 34 100 0
-99 -34 123 0
100 36 -101 0
100 -36 -112 0
-100 -36 112 0
-100 36 101 0
101 -543 -107 0
101 -575 -107 0
101 543 575 -102 0
-101 -543 107 0
-101 -575 107 0
-101 543 575 102 0
102 48 -103 0
-102 -48 0
-102 103 0
103 -572 -89 0
103 572 -104 0
-103 572 104 0
-103 -572 89 0
104 -573 -41 0
104 573 -105 0
-104 573 105 0
-104 -573 41 0
105 -574 -71 0
105 574 -106 0
-105 574 106 0
-105 -574 71 0
106 -532 -575 0
106 -531 575 0
-106 531 575 0
-106 532 -575 0
107 48 -108 0
-107 -48 0
-107 108 0
108 -572 -92 0
108 572 -109 0
-108 572 109 0
-108 -572 92 0
109 -573 -58 0
109 573 -110 0
-109 573 110 0
-109 -573 58 0
110 -574 -79 0
110 574 -111 0
-110 574 111 0
-110 -574 79 0
111 -531 -575 0
111 -530 575 0
-111 530 575 0
-111 531 -575 0
112 -543 -118 0
112 -575 -118 0
112 543 575 -113 0
-112 -543 118 0
-112 -575 118 0
-112 543 575 113 0
113 48 -114 0
-113 -48 0
-113 114 0
114 -572 -95 0
114 572 -115 0
-114 572 115 0
-114 -572 95 0
115 -573 -70 0
115 573 -116 0
-115 573 116 0
-115 -573 70 0
116 -574 -106 0
116 574 -117 0
-116 574 117 0
-116 -574 106 0
117 -530 -575 0
117 -529 575 0
-117 529 575 0
-117 530 -575 0
118 48 -119 0
-118 -48 0
-118 119 0
119 -572 -98 0
119 572 -120 0
-119 572 120 0
-119 -572 98 0
120 -573 -78 0
120 573 -121 0
-120 573 121 0
-120 -573 78 0
121 -574 -111 0
121 574 -122 0
-121 574 122 0
-121 -574 111 0
122 -529 -575 0
122 -528 575 0
-122 528 575 0
-122 529 -575 0
123 36 -124 0
123 -36 -137 0
-123 -36 137 0
-123 36 124 0
124 86 -125 0
124 -86 -131 0
-124 -86 131 0
-124 86 125 0
125 -571 49 -130 0
125 571 49 -126 0
-125 -49 0
-125 -571 130 0
-125 571 126 0
126 -572 -40 0
126 572 -127 0
-126 572 127 0
-126 -572 40 0
127 -573 -105 0
127 573 -128 0
-127 573 128 0
-127 -573 105 0
128 -574 -117 0
128 574 -129 0
-128 574 129 0
-128 -574 117 0
129 -528 -575 0
129 -527 575 0
-129 527 575 0
-129 528 -575 0
130 572 -47 0
-130 -572 0
-130 47 0
131 -571 49 -136 0
131 571 49 -132 0
-131 -49 0
-131 -571 136 0
-131 571 132 0
132 -572 -57 0
132 572 -133 0
-132 572 133 0
-132 -572 57 0
133 -573 -110 0
133 573 -134 0
-133 573 134 0
-133 -573 110 0
134 -574 -122 0
134 574 -135 0
-134 574 135 0
-134 -574 122 0
135 -527 -575 0
135 -526 575 0
-135 526 575 0
-135 527 -575 0
136 572 -64 0
-136 -572 0
-136 64 0
137 86 -138 0
137 -86 -144 0
-137 -86 144 0
-137 86 138 0
138 -571 49 -143 0
138 571 49 -139 0
-138 -49 0
-138 -571 143 0
-138 571 139 0
139 -572 -69 0
139 572 -140 0
-139 572 140 0
-139 -572 69 0
140 -573 -116 0
140 573 -141 0
-140 573 141 0
-140 -573 116 0
141 -574 -129 0
141 574 -142 0
-141 574 142 0
-141 -574 129 0
142 -526 -575 0
142 -525 575 0
-142 525 575 0
-142 526 -575 0
143 572 -73 0
-143 -572 0
-143 73 0
144 -571 49 -149 0
144 571 49 -145 0
-144 -49 0
-144 -571 149 0
-144 571 145 0
145 -572 -77 0
145 572 -146 0
-145 572 146 0
-145 -572 77 0
146 -573 -121 0
146 573 -147 0
-146 573 147 0
-146 -573 121 0
147 -574 -135 0
147 574 -148 0
-147 574 148 0
-147 -574 135 0
148 -525 -575 0
148 -524 575 0
-148 524 575 0
-148 525 -575 0
149 572 -81 0
-149 -572 0
-149 81 0
150 33 -151 0
150 -33 34 -198 0
-150 33 151 0
-150 -33 -34 0
-150 -33 198 0
151 34 -152 0
151 -34 -175 0
-151 -34 175 0
-151 34 152 0
152 36 -153 0
152 -36 -164 0
-152 -36 164 0
-152 36 153 0
153 86 -154 0
153 -86 -159 0
-153 -86 159 0
-153 86 154 0
154 571 49 -155 0
154 -571 49 -88 0
-154 -49 0
-154 -571 88 0
-154 571 155 0
155 -572 -104 0
155 572 -156 0
-155 572 156 0
-155 -572 104 0
156 -573 -128 0
156 573 -157 0
-156 573 157 0
-156 -573 128 0
157 -574 -142 0
157 574 -158 0
-157 574 158 0
-157 -574 142 0
158 -524 -575 0
158 -523 575 0
-158 523 575 0
-158 524 -575 0
159 571 49 -160 0
159 -571 49 -91 0
-159 -49 0
-159 -571 91 0
-159 571 160 0
160 -572 -109 0
160 572 -161 0
-160 572 161 0
-160 -572 109 0
161 -573 -134 0
161 573 -162 0
-161 573 162 0
-161 -573 134 0
162 -574 -148 0
162 574 -163 0
-162 574 163 0
-162 -574 148 0
163 -523 -575 0
163 -522 575 0
-163 522 575 0
-163 523 -575 0
164 86 -165 0
164 -86 -170 0
-164 -86 170 0
-164 86 165 0
165 571 49 -166 0
165 -571 49 -94 0
-165 -49 0
-165 -571 94 0
-165 571 166 0
166 -572 -115 0
166 572 -167 0
-166 572 167 0
-166 -572 115 0
167 -573 -141 0
167 573 -168 0
-167 573 168 0
-167 -573 141 0
168 -574 -158 0
168 574 -169 0
-168 574 169 0
-168 -574 158 0
169 -522 -575 0
169 -521 575 0
-169 521 575 0
-169 522 -575 0
170 571 49 -171 0
170 -571 49 -97 0
-170 -49 0
-170 -571 97 0
-170 571 171 0
171 -572 -120 0
171 572 -172 0
-171 572 172 0
-171 -572 120 0
172 -573 -147 0
172 573 -173 0
-172 573 173 0
-172 -573 147 0
173 -574 -163 0
173 574 -174 0
-173 574 174 0
-173 -574 163 0
174 -521 -575 0
174 -520 575 0
-174 520 575 0
-174 521 -575 0
175 36 -176 0
175 -36 -187 0
-175 -36 187 0
-175 36 176 0
176 -543 -182 0
176 -575 -182 0
176 543 575 -177 0
-176 -543 182 0
-176 -575 182 0
-176 543 575 177 0
177 571 49 -178 0
177 -571 -39 49 0
-177 -49 0
-177 571 178 0
-177 -571 39 0
-178 -572 127 0
-178 572 179 0
178 -572 -127 0
178 572 -179 0
-179 573 180 0
-179 -573 157 0
179 -573 -157 0
179 573 -180 0
180 -574 -169 0
180 574 -181 0
-180 574 181 0
-180 -574 169 0
181 -520 -575 0
181 -519 575 0
-181 519 575 0
-181 520 -575 0
182 571 49 -183 0
182 -571 49 -56 0
-182 -49 0
-182 571 183 0
-182 -571 56 0
-183 -572 133 0
-183 572 184 0
183 -572 -133 0
183 572 -184 0
-184 573 185 0
-184 -573 162 0
184 -573 -162 0
184 573 -185 0
185 -574 -174 0
185 574 -186 0
-185 574 186 0
-185 -574 174 0
186 -519 -575 0
186 -518 575 0
-186 518 575 0
-186 519 -575 0
187 -543 -193 0
187 -575 -193 0
187 543 575 -188 0
-187 -543 193 0
-187 -575 193 0
-187 543 575 188 0
188 571 49 -189 0
188 -571 49 -68 0
-188 -49 0
-188 571 189 0
-188 -571 68 0
-189 -572 140 0
-189 572 190 0
189 -572 -140 0
189 572 -190 0
-190 573 191 0
-190 -573 168 0
190 -573 -168 0
190 573 -191 0
191 -574 -181 0
191 574 -192 0
-191 574 192 0
-191 -574 181 0
192 -518 -575 0
192 -517 575 0
-192 517 575 0
-192 518 -575 0
193 571 49 -194 0
193 -571 49 -76 0
-193 -49 0
-193 571 194 0
-193 -571 76 0
-194 -572 146 0
-194 572 195 0
194 -572 -146 0
194 572 -195 0
-195 573 196 0
-195 -573 173 0
195 -573 -173 0
195 573 -196 0
196 -574 -186 0
196 574 -197 0
-196 574 197 0
-196 -574 186 0
197 -517 -575 0
197 -516 575 0
-197 516 575 0
-197 517 -575 0
198 36 -199 0
198 -36 -210 0
-198 -36 210 0
-198 36 199 0
199 -543 -205 0
199 -575 -205 0
199 543 575 -200 0
-199 -543 205 0
-199 -575 205 0
-199 543 575 200 0
200 571 49 -201 0
200 -571 49 -103 0
-200 -49 0
-200 571 201 0
-200 -571 103 0
-201 -572 156 0
-201 572 202 0
201 -572 -156 0
201 572 -202 0
-202 -573 180 0
-202 573 203 0
202 -573 -180 0
202 573 -203 0
-203 574 204 0
-203 -574 192 0
203 -574 -192 0
203 574 -204 0
204 -516 -575 0
204 -515 575 0
-204 515 575 0
-204 516 -575 0
205 571 49 -206 0
205 -571 49 -108 0
-205 -49 0
-205 571 206 0
-205 -571 108 0
-206 -572 161 0
-206 572 207 0
206 -572 -161 0
206 572 -207 0
-207 -573 185 0
-207 573 208 0
207 -573 -185 0
207 573 -208 0
-208 574 209 0
-208 -574 197 0
208 -574 -197 0
208 574 -209 0
209 -515 -575 0
209 -514 575 0
-209 514 575 0
-209 515 -575 0
210 -543 -216 0
210 -575 -216 0
210 543 575 -211 0
-210 -543 216 0
-210 -575 216 0
-210 543 575 211 0
211 571 49 -212 0
211 -571 49 -114 0
-211 -49 0
-211 571 212 0
-211 -571 114 0
-212 -572 167 0
-212 572 213 0
212 -572 -167 0
212 572 -213 0
-213 -573 191 0
-213 573 214 0
213 -573 -191 0
213 573 -214 0
-214 574 215 0
-214 -574 204 0
214 -574 -204 0
214 574 -215 0
215 -514 -575 0
215 -513 575 0
-215 513 575 0
-215 514 -575 0
216 571 49 -217 0
216 -571 49 -119 0
-216 -49 0
-216 571 217 0
-216 -571 119 0
-217 -572 172 0
-217 572 218 0
217 -572 -172 0
217 572 -218 0
-218 -573 196 0
-218 573 219 0
218 -573 -196 0
218 573 -219 0
-219 574 220 0
-219 -574 209 0
219 -574 -209 0
219 574 -220 0
220 -513 -575 0
220 -512 575 0
-220 512 575 0
-220 513 -575 0
221 -539 222 -228 0
-221 539 0
-221 -222 0
-221 228 0
-222 517 223 224 225 0
222 -517 0
222 -225 0
222 -224 0
222 -223 0
-223 532 533 534 535 0
223 -535 0
223 -534 0
223 -532 0
223 -533 0
-224 525 8 22 29 0
224 -525 0
224 -29 0
224 -22 0
224 -8 0
-225 14 226 24 227 0
225 -227 0
225 -14 0
225 -24 0
225 -226 0
-226 518 519 0
226 -518 0
226 -519 0
-227 523 524 10 27 0
227 -523 0
227 -27 0
227 -10 0
227 -524 0
-228 -540 -541 0
-228 540 318 0
-228 -540 229 0
228 540 -318 0
228 -540 541 -229 0
229 542 -230 0
229 -542 -286 0
-229 -542 286 0
-229 542 230 0
230 543 -231 0
230 -543 -258 0
-230 -543 258 0
-230 543 231 0
231 -571 49 -247 0
231 571 49 -232 0
-231 -49 0
-231 -571 247 0
-231 571 232 0
-232 572 233 0
-232 -572 240 0
232 -572 -240 0
232 572 -233 0
-233 573 234 0
-233 -573 237 0
233 -573 -237 0
233 573 -234 0
-234 574 236 0
-234 -574 235 0
234 -574 -235 0
234 574 -236 0
235 -550 -575 0
235 -549 575 0
-235 549 575 0
-235 550 -575 0
236 -548 -575 0
236 -547 575 0
-236 547 575 0
-236 548 -575 0
237 574 -238 0
237 -574 -239 0
-237 -574 239 0
-237 574 238 0
238 -552 -575 0
238 -551 575 0
-238 551 575 0
-238 552 -575 0
239 -554 -575 0
239 -553 575 0
-239 553 575 0
-239 554 -575 0
240 573 -241 0
240 -573 -244 0
-240 -573 244 0
-240 573 241 0
241 574 -242 0
241 -574 -243 0
-241 -574 243 0
-241 574 242 0
242 -556 -575 0
242 -555 575 0
-242 555 575 0
-242 556 -575 0
243 -558 -575 0
243 -557 575 0
-243 557 575 0
-243 558 -575 0
244 574 -245 0
244 -574 -246 0
-244 -574 246 0
-244 574 245 0
245 -560 -575 0
245 -559 575 0
-245 559 575 0
-245 560 -575 0
246 -562 -575 0
246 -561 575 0
-246 561 575 0
-246 562 -575 0
247 572 -248 0
247 -572 -255 0
-247 -572 255 0
-247 572 248 0
248 573 -249 0
248 -573 -252 0
-248 -573 252 0
-248 573 249 0
249 574 -250 0
249 -574 -251 0
-249 -574 251 0
-249 574 250 0
250 -564 -575 0
250 -563 575 0
-250 563 575 0
-250 564 -575 0
251 -566 -575 0
251 -565 575 0
-251 565 575 0
-251 566 -575 0
252 574 -253 0
252 -574 -254 0
-252 -574 254 0
-252 574 253 0
253 -568 -575 0
253 -567 575 0
-253 567 575 0
-253 568 -575 0
254 -570 -575 0
254 -569 575 0
-254 569 575 0
-254 570 -575 0
255 573 -256 0
-255 -573 0
-255 256 0
256 -573 -574 0
256 574 -257 0
256 -574 -575 0
-256 574 257 0
-256 573 -574 575 0
257 -572 -575 0
257 -571 575 0
-257 571 575 0
-257 572 -575 0
258 -571 49 -274 0
258 571 49 -259 0
-258 -49 0
-258 -571 274 0
-258 571 259 0
-259 572 260 0
-259 -572 267 0
259 -572 -267 0
259 572 -260 0
-260 573 261 0
-260 -573 264 0
260 -573 -264 0
260 573 -261 0
-261 574 263 0
-261 -574 262 0
261 -574 -262 0
261 574 -263 0
262 -549 -575 0
262 -548 575 0
-262 548 575 0
-262 549 -575 0
263 -547 -575 0
263 -546 575 0
-263 546 575 0
-263 547 -575 0
264 574 -265 0
264 -574 -266 0
-264 -574 266 0
-264 574 265 0
265 -551 -575 0
265 -550 575 0
-265 550 575 0
-265 551 -575 0
266 -553 -575 0
266 -552 575 0
-266 552 575 0
-266 553 -575 0
267 573 -268 0
267 -573 -271 0
-267 -573 271 0
-267 573 268 0
268 574 -269 0
268 -574 -270 0
-268 -574 270 0
-268 574 269 0
269 -555 -575 0
269 -554 575 0
-269 554 575 0
-269 555 -575 0
270 -557 -575 0
270 -556 575 0
-270 556 575 0
-270 557 -575 0
271 574 -272 0
271 -574 -273 0
-271 -574 273 0
-271 574 272 0
272 -559 -575 0
272 -558 575 0
-272 558 575 0
-272 559 -575 0
273 -561 -575 0
273 -560 575 0
-273 560 575 0
-273 561 -575 0
274 572 -275 0
274 -572 -282 0
-274 -572 282 0
-274 572 275 0
275 573 -276 0
275 -573 -279 0
-275 -573 279 0
-275 573 276 0
276 574 -277 0
276 -574 -278 0
-276 -574 278 0
-276 574 277 0
277 -563 -575 0
277 -562 575 0
-277 562 575 0
-277 563 -575 0
278 -565 -575 0
278 -564 575 0
-278 564 575 0
-278 565 -575 0
279 574 -280 0
279 -574 -281 0
-279 -574 281 0
-279 574 280 0
280 -567 -575 0
280 -566 575 0
-280 566 575 0
-280 567 -575 0
281 -569 -575 0
281 -568 575 0
-281 568 575 0
-281 569 -575 0
282 573 -283 0
282 -573 574 -575 0
-282 -573 -574 0
-282 573 283 0
-282 -573 575 0
283 574 -284 0
283 -574 -285 0
-283 -574 285 0
-283 574 284 0
284 -571 -575 0
284 -570 575 0
-284 570 575 0
-284 571 -575 0
285 -573 -575 0
285 -572 575 0
-285 572 575 0
-285 573 -575 0
286 543 -287 0
286 -543 -302 0
-286 -543 302 0
-286 543 287 0
287 -571 49 -296 0
287 571 49 -288 0
-287 -49 0
-287 -571 296 0
-287 571 288 0
-288 572 289 0
-288 -572 293 0
288 -572 -293 0
288 572 -289 0
-289 573 290 0
-289 -573 292 0
289 -573 -292 0
289 573 -290 0
-290 574 291 0
-290 -574 236 0
290 -574 -236 0
290 574 -291 0
291 -546 -575 0
291 -545 575 0
-291 545 575 0
-291 546 -575 0
292 574 -235 0
292 -574 -238 0
-292 -574 238 0
-292 574 235 0
293 573 -294 0
293 -573 -295 0
-293 -573 295 0
-293 573 294 0
294 574 -239 0
294 -574 -242 0
-294 -574 242 0
-294 574 239 0
295 574 -243 0
295 -574 -245 0
-295 -574 245 0
-295 574 243 0
296 572 -297 0
296 -572 -300 0
-296 -572 300 0
-296 572 297 0
297 573 -298 0
297 -573 -299 0
-297 -573 299 0
-297 573 298 0
298 574 -246 0
298 -574 -250 0
-298 -574 250 0
-298 574 246 0
299 574 -251 0
299 -574 -253 0
-299 -574 253 0
-299 574 251 0
300 573 -301 0
300 -573 574 575 0
-300 -573 -574 0
-300 573 301 0
-300 -573 -575 0
301 574 -254 0
301 -574 -257 0
-301 -574 257 0
-301 574 254 0
302 -571 49 -311 0
302 571 49 -303 0
-302 -49 0
-302 -571 311 0
-302 571 303 0
-303 572 304 0
-303 -572 308 0
303 -572 -308 0
303 572 -304 0
-304 573 305 0
-304 -573 307 0
304 -573 -307 0
304 573 -305 0
-305 574 306 0
-305 -574 263 0
305 -574 -263 0
305 574 -306 0
306 -545 -575 0
306 -544 575 0
-306 544 575 0
-306 545 -575 0
307 574 -262 0
307 -574 -265 0
-307 -574 265 0
-307 574 262 0
308 573 -309 0
308 -573 -310 0
-308 -573 310 0
-308 573 309 0
309 574 -266 0
309 -574 -269 0
-309 -574 269 0
-309 574 266 0
310 574 -270 0
310 -574 -272 0
-310 -574 272 0
-310 574 270 0
311 572 -312 0
311 -572 -315 0
-311 -572 315 0
-311 572 312 0
312 573 -313 0
312 -573 -314 0
-312 -573 314 0
-312 573 313 0
313 574 -273 0
313 -574 -277 0
-313 -574 277 0
-313 574 273 0
314 574 -278 0
314 -574 -280 0
-314 -574 280 0
-314 574 278 0
315 573 -316 0
315 -573 -317 0
-315 -573 317 0
-315 573 316 0
316 574 -281 0
316 -574 -284 0
-316 -574 284 0
-316 574 281 0
-317 573 574 -575 0
-317 572 574 575 0
317 -574 0
317 -572 575 0
317 -573 -575 0
-318 -541 335 0
-318 541 319 0
318 541 -319 0
318 -541 -335 0
319 542 -320 0
319 -542 -328 0
319 542 -324 0
-319 -542 328 0
-319 542 320 324 0
320 543 -321 0
-320 -543 0
-320 321 0
321 -571 49 -323 0
321 571 49 -322 0
-321 -49 0
-321 -571 323 0
-321 571 322 0
322 572 -240 0
322 -572 -248 0
-322 -572 248 0
-322 572 240 0
323 572 -255 0
-323 -572 0
-323 255 0
324 571 -325 -326 0
324 -571 -326 -327 0
-324 326 0
-324 -571 327 0
-324 571 325 0
325 572 -267 0
325 -572 -275 0
-325 -572 275 0
-325 572 267 0
326 -543 49 0
-326 543 0
-326 -49 0
327 572 -282 0
-327 -572 0
-327 282 0
-328 -543 329 0
-328 543 332 0
-328 543 -49 0
328 -543 -329 0
328 543 49 -332 0
329 -571 49 -331 0
329 571 49 -330 0
-329 -49 0
-329 -571 331 0
-329 571 330 0
330 572 -308 0
330 -572 -312 0
-330 -572 312 0
-330 572 308 0
331 572 -315 0
-331 -572 0
-331 315 0
-332 571 333 0
-332 -571 334 0
332 -571 -334 0
332 571 -333 0
-333 -572 297 0
-333 572 293 0
333 572 -293 0
333 -572 -297 0
334 572 -300 0
-334 -572 0
-334 300 0
335 -542 -336 0
335 542 -351 0
335 -542 -344 0
-335 542 351 0
-335 -542 336 344 0
336 -543 -337 0
-336 543 0
-336 337 0
337 -571 49 -341 0
337 571 49 -338 0
-337 -49 0
-337 -571 341 0
-337 571 338 0
-338 572 339 0
-338 -572 340 0
338 -572 -340 0
338 572 -339 0
-339 -573 309 0
-339 573 307 0
339 573 -307 0
339 -573 -309 0
340 573 -310 0
340 -573 -313 0
-340 -573 313 0
-340 573 310 0
341 572 -342 0
341 -572 -343 0
-341 -572 343 0
-341 572 342 0
342 573 -314 0
342 -573 -316 0
-342 -573 316 0
-342 573 314 0
343 573 -574 0
343 -572 573 575 0
-343 -573 0
-343 574 -575 0
-343 572 574 0
344 -571 345 -349 0
344 571 345 -346 0
-344 -345 0
-344 -571 349 0
-344 571 346 0
-345 543 49 0
345 -543 0
345 -49 0
346 572 -347 0
346 -572 -348 0
-346 -572 348 0
-346 572 347 0
347 573 -292 0
347 -573 -294 0
-347 -573 294 0
-347 573 292 0
348 573 -295 0
348 -573 -298 0
-348 -573 298 0
-348 573 295 0
349 572 -350 0
-349 -572 0
-349 350 0
350 573 -299 0
350 -573 -301 0
-350 -573 301 0
-350 573 299 0
-351 -543 358 0
-351 352 358 0
351 -358 0
351 543 -352 0
352 -571 49 -356 0
352 571 49 -353 0
-352 -49 0
-352 -571 356 0
-352 571 353 0
353 572 -354 0
353 -572 -355 0
-353 -572 355 0
-353 572 354 0
354 573 -237 0
354 -573 -241 0
-354 -573 241 0
-354 573 237 0
355 573 -244 0
355 -573 -249 0
-355 -573 249 0
-355 573 244 0
356 572 -357 0
-356 -572 0
-356 357 0
357 -573 -574 0
357 573 -252 0
357 -573 -257 0
-357 573 252 0
-357 -573 574 257 0
358 -571 -326 -362 0
358 571 -326 -359 0
-358 326 0
-358 -571 362 0
-358 571 359 0
359 572 -360 0
359 -572 -361 0
-359 -572 361 0
-359 572 360 0
360 573 -264 0
360 -573 -268 0
-360 -573 268 0
-360 573 264 0
361 573 -271 0
361 -573 -276 0
-361 -573 276 0
-361 573 271 0
362 572 -364 0
362 -572 573 -363 0
-362 -572 -573 0
-362 572 364 0
-362 -572 363 0
363 574 -575 0
-363 -574 0
-363 575 0
364 573 -279 0
364 -573 -283 0
-364 -573 283 0
-364 573 279 0
-365 366 397 -429 -442 0
-365 -366 -397 -429 -442 0
-365 366 397 429 442 0
-365 -366 -397 429 442 0
365 366 -397 0
365 -366 397 0
365 429 -442 0
365 -429 442 0
366 4 -367 0
-366 -4 0
-366 367 0
-367 31 368 0
-367 -31 -390 0
-367 -31 383 0
367 31 -368 0
367 -31 -383 390 0
-368 33 369 0
-368 -33 -380 0
-368 -33 377 0
368 33 -369 0
368 -33 -377 380 0
-369 370 374 0
369 -370 0
369 -374 0
370 -34 -36 -373 0
370 -34 36 -371 0
-370 34 0
-370 36 371 0
-370 -36 373 0
371 -86 -372 0
371 86 48 -91 0
-371 86 -48 0
-371 -86 372 0
-371 86 91 0
372 48 -94 0
-372 -48 0
-372 94 0
373 -86 -38 0
373 86 48 -97 0
-373 86 97 0
-373 -86 38 0
-373 86 -48 0
374 34 -36 -375 0
374 34 36 -376 0
-374 -34 0
-374 36 376 0
-374 -36 375 0
375 -86 -87 0
375 86 48 -149 0
-375 86 149 0
-375 -86 87 0
-375 86 -48 0
-376 -48 0
-376 86 136 0
-376 -86 143 0
376 -86 48 -143 0
376 86 48 -136 0
-377 34 -36 379 0
-377 34 36 378 0
377 -34 0
377 36 -378 0
377 -36 -379 0
378 -543 -67 0
378 -575 -67 0
378 543 575 -55 0
-378 -543 67 0
-378 -575 67 0
-378 543 575 55 0
379 -543 -102 0
379 -575 -102 0
379 543 575 -75 0
-379 -543 102 0
-379 -575 102 0
-379 543 575 75 0
380 -34 36 381 0
380 -34 -36 382 0
-380 34 0
-380 36 -381 0
-380 -36 -382 0
381 -543 -113 0
381 -575 -113 0
381 543 575 -107 0
-381 -543 113 0
-381 -575 113 0
-381 543 575 107 0
382 86 -118 0
382 -86 -125 0
-382 -86 125 0
-382 86 118 0
-383 33 384 0
-383 33 -387 0
383 -33 0
383 -384 387 0
-384 34 -36 386 0
-384 34 36 385 0
384 -34 0
384 36 -385 0
384 -36 -386 0
385 86 -131 0
385 -86 -138 0
-385 -86 138 0
-385 86 131 0
386 86 -144 0
386 -86 -154 0
-386 -86 154 0
-386 86 144 0
387 -34 36 388 0
387 -34 -36 389 0
-387 34 0
-387 36 -388 0
-387 -36 -389 0
388 86 -159 0
388 -86 -165 0
-388 -86 165 0
-388 86 159 0
389 86 -170 0
389 -86 -177 0
-389 -86 177 0
-389 86 170 0
390 -33 391 0
390 -33 -394 0
-390 33 0
-390 -391 394 0
-391 34 -36 393 0
-391 34 36 392 0
391 -34 0
391 36 -392 0
391 -36 -393 0
392 -543 -188 0
392 -575 -188 0
392 543 575 -182 0
-392 -543 188 0
-392 -575 188 0
-392 543 575 182 0
393 -543 -200 0
393 -575 -200 0
393 543 575 -193 0
-393 -543 200 0
-393 -575 200 0
-393 543 575 193 0
394 -34 36 395 0
394 -34 -36 396 0
-394 34 0
-394 36 -395 0
-394 -36 -396 0
395 -543 -211 0
395 -575 -211 0
395 543 575 -205 0
-395 -543 211 0
-395 -575 211 0
-395 543 575 205 0
396 86 -216 0
-396 -86 0
-396 216 0
397 -542 222 -398 0
-397 542 0
-397 -222 0
-397 398 0
-398 540 409 0
-398 -540 399 402 0
398 -540 -399 0
398 540 -409 0
398 -540 -402 0
399 -539 -541 -401 0
399 -539 541 -400 0
-399 539 0
-399 -541 401 0
-399 541 400 0
400 -543 -231 0
400 543 -337 0
-400 543 337 0
-400 -543 231 0
401 543 -302 0
-401 -543 0
-401 302 0
402 539 -541 -406 0
402 539 541 -403 0
-402 -539 0
-402 -541 406 0
-402 541 403 0
403 543 -404 0
403 -543 -405 0
-403 -543 405 0
-403 543 404 0
404 48 -341 0
-404 -48 0
-404 341 0
405 48 -247 0
-405 -48 0
-405 247 0
406 543 -407 0
406 -543 -408 0
-406 -543 408 0
-406 543 407 0
407 48 -311 0
-407 -48 0
-407 311 0
408 -572 48 -357 0
408 572 48 -355 0
-408 -48 0
-408 -572 357 0
-408 572 355 0
-409 539 410 0
-409 -539 424 425 0
409 -539 -424 0
409 539 -410 0
409 -539 -425 0
-410 -541 411 0
-410 541 418 0
410 541 -418 0
410 -541 -411 0
-411 -542 415 0
-411 542 412 0
411 542 -412 0
411 -542 -415 0
412 543 -413 0
412 -543 -414 0
-412 -543 414 0
-412 543 413 0
413 48 -327 0
-413 -48 0
-413 327 0
414 48 -334 0
-414 -48 0
-414 334 0
415 543 -416 0
415 -543 -417 0
-415 -543 417 0
-415 543 416 0
416 48 -331 0
-416 -48 0
-416 331 0
417 48 -356 0
-417 -48 0
-417 356 0
-418 542 419 0
-418 -543 421 0
-418 542 -543 0
-418 419 421 0
418 -542 -421 0
418 543 -419 0
419 542 48 -420 0
-419 420 0
-419 -48 0
-419 -542 0
420 572 573 574 -575 0
-420 575 0
-420 -574 0
-420 -572 0
-420 -573 0
421 543 -422 0
421 -543 -423 0
-421 -543 423 0
-421 543 422 0
422 572 573 -574 48 0
-422 -572 0
-422 -48 0
-422 574 0
-422 -573 0
423 48 -323 0
-423 -48 0
-423 323 0
424 -541 -543 -352 0
424 -541 543 -329 0
-424 541 0
-424 -543 352 0
-424 543 329 0
425 541 543 -426 0
425 541 -543 -321 0
-425 -541 0
-425 -543 321 0
-425 543 426 0
426 571 49 -428 0
426 -571 49 -427 0
-426 -49 0
-426 -571 427 0
-426 571 428 0
427 572 573 -574 0
-427 574 0
-427 -573 0
-427 -572 0
428 572 -340 0
428 -572 -342 0
-428 -572 342 0
-428 572 340 0
429 4 -430 0
-429 -4 0
-429 430 0
-430 -31 437 0
-430 31 431 434 0
430 31 -431 0
430 -31 -437 0
430 31 -434 0
431 33 -432 0
431 33 -433 0
-431 -33 0
-431 432 433 0
432 -34 -36 -378 0
432 -34 36 -373 0
-432 34 0
-432 36 373 0
-432 -36 378 0
433 34 36 -375 0
433 34 -36 -371 0
-433 -34 0
-433 36 375 0
-433 -36 371 0
434 -33 -435 436 0
-434 33 0
-434 -436 0
-434 435 0
-435 34 -36 381 0
-435 34 36 379 0
435 -34 0
435 36 -379 0
435 -36 -381 0
436 -34 36 382 0
436 -34 -36 385 0
-436 34 0
-436 36 -382 0
-436 -36 -385 0
437 -33 -440 0
437 33 -438 439 0
-437 33 438 0
-437 -33 440 0
-437 33 -439 0
-438 34 -36 388 0
-438 34 36 386 0
438 -34 0
438 36 -386 0
438 -36 -388 0
439 -34 36 389 0
439 -34 -36 392 0
-439 34 0
-439 36 -389 0
-439 -36 -392 0
440 34 -441 0
440 -34 36 -396 0
-440 34 441 0
-440 -34 396 0
-440 -34 -36 0
441 36 -393 0
441 -36 -395 0
-441 -36 395 0
-441 36 393 0
442 539 -443 -457 0
442 -539 -457 -458 0
-442 457 0
-442 -539 458 0
-442 539 443 0
443 -541 -444 0
443 541 -452 453 0
-443 541 -453 0
-443 -541 444 0
-443 541 452 0
444 542 -451 0
444 -542 -445 0
-444 -542 445 0
-444 542 451 0
-445 540 -543 0
-445 -540 446 0
-445 540 450 0
445 -540 -446 0
445 540 543 -450 0
446 543 -447 0
446 -543 -449 0
-446 -543 449 0
-446 543 447 0
447 571 49 -448 0
447 -571 49 -420 0
-447 -49 0
-447 -571 420 0
-447 571 448 0
448 572 -361 0
448 -572 -364 0
-448 -572 364 0
-448 572 361 0
449 -572 48 -350 0
449 572 48 -348 0
-449 -48 0
-449 -572 350 0
-449 572 348 0
450 48 -362 0
-450 -48 0
-450 362 0
-451 540 415 0
-451 -540 406 0
451 -540 -406 0
451 540 -415 0
-452 540 542 421 0
-452 -540 542 403 0
452 -542 0
452 540 -421 0
452 -540 -403 0
453 540 -542 412 0
453 -540 -542 454 0
-453 542 0
-453 -540 -454 0
-453 540 -412 0
454 543 -455 0
454 -543 -456 0
-454 -543 456 0
-454 543 455 0
455 48 -274 0
-455 -48 0
-455 274 0
456 48 -296 0
-456 -48 0
-456 296 0
457 -540 222 0
-457 540 0
-457 -222 0
-458 401 459 0
-458 -542 459 0
-458 541 459 0
458 -459 0
458 -541 542 -401 0
459 541 -542 -460 0
459 541 542 -400 0
-459 -541 0
-459 -542 460 0
-459 542 400 0
-460 -543 287 0
-460 543 258 0
460 543 -258 0
460 -543 -287 0
-461 462 473 -492 -505 0
-461 -462 -473 -492 -505 0
-461 462 473 492 505 0
-461 -462 -473 492 505 0
461 462 -473 0
461 -462 473 0
461 492 -505 0
461 -492 505 0
462 4 -463 0
-462 -4 0
-462 463 0
-463 31 464 0
-463 -31 -472 0
-463 -31 471 0
463 31 -464 0
463 -31 -471 472 0
-464 465 470 0
464 -465 0
464 -470 0
465 33 34 -466 0
465 33 -34 -84 0
-465 -33 0
-465 34 466 0
-465 -34 84 0
466 -36 -468 0
466 36 -86 -467 0
-466 36 86 0
-466 -36 468 0
-466 36 467 0
467 48 -136 0
-467 -48 0
-467 136 0
468 -86 -469 0
468 86 48 -143 0
-468 86 -48 0
-468 -86 469 0
-468 86 143 0
469 48 -149 0
-469 -48 0
-469 149 0
470 -33 -34 -100 0
470 -33 34 -35 0
-470 33 0
-470 34 35 0
-470 -34 100 0
-471 33 -34 152 0
-471 33 34 123 0
471 -33 0
471 34 -123 0
471 -34 -152 0
472 -33 34 175 0
472 -33 -34 198 0
-472 33 0
-472 34 -175 0
-472 -34 -198 0
473 -543 222 -474 486 0
-473 -222 0
-473 -486 0
-473 543 0
-473 474 0
-474 539 -541 475 0
-474 539 541 482 0
474 -539 0
474 -541 -475 0
474 541 -482 0
475 -540 -476 0
475 540 -479 0
-475 540 479 0
-475 -540 476 0
476 542 -477 0
476 -542 -478 0
-476 -542 478 0
-476 542 477 0
477 543 -405 0
477 -543 -455 0
-477 -543 455 0
-477 543 405 0
478 -543 -407 0
478 543 -456 0
-478 543 456 0
-478 -543 407 0
479 -542 -480 0
479 542 -481 0
-479 -542 480 0
-479 542 481 0
480 543 -414 0
480 -543 -416 0
-480 -543 416 0
-480 543 414 0
-481 543 423 0
-481 -543 413 0
481 -543 -413 0
481 543 -423 0
482 -540 -483 0
482 540 -485 0
-482 -540 483 0
-482 540 485 0
483 542 -484 0
483 -542 -543 -404 0
-483 -542 543 0
-483 542 484 0
-483 -542 404 0
484 543 -417 0
484 -543 -450 0
-484 -543 450 0
-484 543 417 0
-485 -48 0
-485 -542 427 0
-485 542 420 0
485 -542 48 -427 0
485 542 48 -420 0
486 -539 -540 491 0
486 -539 540 487 0
-486 539 0
-486 -540 -491 0
-486 540 -487 0
487 -541 -319 0
487 541 -488 0
-487 -541 319 0
-487 541 488 0
-488 -542 489 0
-488 542 490 0
488 -542 -489 0
488 542 -490 0
-489 543 449 0
-489 -543 426 0
489 -543 -426 0
489 543 -449 0
490 543 -408 0
490 -543 -447 0
-490 -543 447 0
-490 543 408 0
491 -541 -229 0
491 541 -335 0
-491 541 335 0
-491 -541 229 0
492 4 -493 0
-492 -4 0
-492 493 0
-493 -31 500 0
-493 31 494 497 0
493 31 -494 0
493 -31 -500 0
493 31 -497 0
494 33 -495 0
494 33 -496 0
-494 -33 0
-494 495 496 0
495 -34 36 -93 0
495 -34 -36 -37 0
-495 34 0
-495 36 93 0
-495 -36 37 0
496 34 36 -468 0
496 34 -36 -85 0
-496 -34 0
-496 36 468 0
-496 -36 85 0
497 -33 -498 499 0
-497 33 0
-497 -499 0
-497 498 0
-498 34 -36 101 0
-498 34 36 66 0
498 -34 0
498 36 -66 0
498 -36 -101 0
499 -34 36 112 0
499 -34 -36 124 0
-499 34 0
-499 36 -112 0
-499 -36 -124 0
500 -33 -503 0
500 33 -501 502 0
-500 33 501 0
-500 -33 503 0
-500 33 -502 0
-501 34 -36 153 0
-501 34 36 137 0
501 -34 0
501 36 -137 0
501 -36 -153 0
502 -34 36 164 0
502 -34 -36 176 0
-502 34 0
-502 36 -164 0
-502 -36 -176 0
503 34 -504 0
503 -34 36 -210 0
-503 34 504 0
-503 -34 210 0
-503 -34 -36 0
504 36 -187 0
504 -36 -199 0
-504 -36 199 0
-504 36 187 0
505 -541 222 -506 0
-505 541 0
-505 -222 0
-505 506 0
-506 -539 509 0
-506 539 507 508 0
506 539 -507 0
506 -539 -509 0
506 539 -508 0
507 -540 -542 -490 0
507 -540 542 -478 0
-507 540 0
-507 -542 490 0
-507 542 478 0
508 540 -542 -484 0
508 540 542 -480 0
-508 -540 0
-508 -542 484 0
-508 542 480 0
-509 540 511 0
-509 -540 286 0
-509 -540 510 0
509 540 -511 0
509 -540 -286 -510 0
510 -541 542 0
-510 541 0
-510 -542 0
-511 542 328 0
-511 -542 351 0
511 -542 -351 0
511 542 -328 0
-576 0
2 0

